p cnf 154 93
-16 -42 0
-16 -18 0
-16 -20 0
42 16 0
-42 -16 0
-146 -148 0
-146 -150 0
-146 -152 0
-146 -154 0
18 20 16 0
148 150 152 154 146 0
-18 -20 0
-18 -16 0
-148 -150 0
-148 -152 0
-148 -154 0
-148 -146 0
20 18 16 0
20 44 0
150 152 154 148 146 0
-20 -46 0
-20 -48 0
-20 -76 0
-20 -18 0
-20 -16 0
46 20 0
-46 -74 0
-46 -48 0
-46 -50 0
-46 -20 0
-124 -150 0
150 124 0
-150 -152 0
-150 -154 0
-150 -124 0
-150 -148 0
-150 -146 0
48 76 20 0
48 50 46 0
74 46 0
126 150 0
152 154 150 148 146 0
-48 -74 0
-48 -76 0
-48 -50 0
-48 -20 0
-48 -46 0
74 48 0
-74 -76 0
-74 -48 0
-74 -46 0
-152 -154 0
-152 -150 0
-152 -148 0
-152 -146 0
50 48 46 0
76 48 20 0
76 74 0
76 100 0
154 152 150 148 146 0
-50 -76 0
-50 -102 0
-50 -128 0
-50 -154 0
-50 -48 0
-50 -46 0
76 102 128 154 50 0
-76 -102 0
-76 -128 0
-76 -154 0
-76 -50 0
-76 -48 0
-76 -20 0
-76 -74 0
102 128 154 76 50 0
-102 -128 0
-102 -154 0
-102 -76 0
-102 -50 0
128 154 102 76 50 0
-128 -154 0
-128 -102 0
-128 -76 0
-128 -50 0
154 128 102 76 50 0
-154 -128 0
-154 -102 0
-154 -76 0
-154 -50 0
-154 -152 0
-154 -150 0
-154 -148 0
-154 -146 0
